p cnf 128 388
a 35 0
e 1 2 3 4 5 6 7 41 45 127 128 0
a 36 37 0
e 8 9 10 11 12 13 14 15 16 17 18 19 20 21 22 23 24 25 49 52 55 58 61 64 69 74 122 123 124 125 126 0
a 38 39 40 0
e 26 27 28 29 30 31 32 33 34 42 43 44 46 47 48 50 51 53 54 56 57 59 60 62 63 65 66 67 68 70 71 72 73 75 76 77 78 79 80 81 82 83 84 85 86 87 88 89 90 91 92 93 94 95 96 97 98 99 100 101 102 103 104 105 106 107 108 109 110 111 112 113 114 115 116 117 118 119 120 121 0
128 41 0
-35 -41 0
35 41 0
-45 -127 128 0
45 -128 0
127 -128 0
-45 44 -35 0
45 35 0
45 -44 0
44 -3 -42 -43 0
3 -44 0
3 -44 0
42 -44 0
43 -44 0
2 6 7 -42 0
-2 42 0
-7 42 0
-6 42 0
1 4 5 -43 0
-1 43 0
-5 43 0
-4 43 0
49 -127 126 0
-49 127 0
-126 127 0
-46 -47 -48 49 0
46 -49 0
47 -49 0
48 -49 0
-46 -3 -36 37 0
46 3 0
46 36 0
46 -37 0
-47 -2 36 -37 0
2 47 0
47 -36 0
47 37 0
-1 -48 -36 -37 0
1 48 0
48 36 0
48 37 0
-61 -64 -122 -123 -124 -52 -125 -69 126 -55 -58 -74 0
52 -126 0
-126 55 0
-126 58 0
61 -126 0
64 -126 0
-126 69 0
-126 74 0
122 -126 0
123 -126 0
124 -126 0
125 -126 0
-52 51 22 24 10 0
-51 52 0
52 -10 0
-24 52 0
-22 52 0
-22 52 0
-51 50 -7 0
51 7 0
-50 51 0
1 2 3 50 0
-3 -50 0
-2 -50 0
-1 -50 0
21 -55 54 9 25 0
-54 55 0
-9 55 0
-25 55 0
-21 55 0
-6 -54 53 0
6 54 0
-53 54 0
1 2 3 53 0
-3 -53 0
-2 -53 0
-1 -53 0
21 23 9 -58 57 0
-57 58 0
-9 58 0
-23 58 0
-21 58 0
-21 58 0
-5 -57 56 0
5 57 0
-56 57 0
1 2 3 56 0
-3 -56 0
-2 -56 0
-1 -56 0
-61 60 20 8 24 0
61 -60 0
61 -8 0
61 -24 0
61 -20 0
-4 -60 59 0
60 4 0
60 -59 0
1 2 3 59 0
-3 -59 0
-2 -59 0
-1 -59 0
62 -64 63 0
-62 64 0
-63 64 0
-62 -36 37 0
62 36 0
62 -37 0
-18 63 -21 -24 0
-63 18 0
-63 21 0
-63 24 0
65 66 67 -69 68 0
-65 69 0
-66 69 0
-67 69 0
-68 69 0
-65 36 -37 0
65 -36 0
65 37 0
-19 -21 66 -25 -13 0
19 -66 0
-66 13 0
-66 21 0
-66 25 0
-66 25 0
-16 -21 -22 67 -24 -25 0
16 -67 0
21 -67 0
-67 25 0
-67 25 0
-67 22 0
-67 24 0
-18 -22 68 -24 -14 0
18 -68 0
-68 14 0
22 -68 0
-68 24 0
70 71 72 -74 73 0
-70 74 0
-71 74 0
-72 74 0
-73 74 0
-36 -37 -70 0
36 70 0
37 70 0
-18 -20 -24 71 -11 0
18 -71 0
-71 11 0
20 -71 0
24 -71 0
24 -71 0
-20 -21 -23 -24 72 -15 0
15 -72 0
20 -72 0
24 -72 0
24 -72 0
21 -72 0
23 -72 0
-17 -21 -23 -12 73 0
17 -73 0
-73 12 0
21 -73 0
23 -73 0
-122 121 82 0
-82 122 0
-121 122 0
-77 -78 -79 -80 -81 82 -75 -76 0
-82 75 0
76 -82 0
77 -82 0
78 -82 0
79 -82 0
80 -82 0
81 -82 0
-38 39 40 -75 -14 0
14 75 0
38 75 0
-39 75 0
-40 75 0
38 -39 40 -13 -76 0
76 13 0
76 -38 0
76 39 0
76 -40 0
-77 -38 -39 -12 40 0
77 12 0
77 38 0
77 39 0
77 -40 0
-78 38 -11 39 -40 0
78 11 0
78 -38 0
78 -39 0
78 40 0
-79 -38 -10 39 -40 0
79 10 0
79 38 0
79 -39 0
79 40 0
-80 -9 38 -39 -40 0
80 9 0
80 -38 0
80 39 0
80 40 0
-81 -8 -38 -39 -40 0
81 8 0
81 38 0
81 39 0
81 40 0
-118 -119 -95 -120 121 -99 -102 -105 -108 -111 -113 -115 -85 -117 -88 -91 0
-121 85 0
-121 88 0
-121 91 0
95 -121 0
-121 99 0
-121 102 0
-121 105 0
108 -121 0
111 -121 0
-121 113 0
-121 115 0
-121 117 0
118 -121 0
119 -121 0
120 -121 0
34 -85 84 0
-84 85 0
-34 85 0
-19 -84 83 0
19 84 0
-83 84 0
83 8 9 10 11 12 13 14 0
-83 -14 0
-83 -13 0
-83 -12 0
-83 -11 0
-83 -10 0
-83 -9 0
-83 -8 0
33 -88 87 0
-87 88 0
-33 88 0
-18 -87 86 0
18 87 0
-86 87 0
8 86 9 10 11 12 13 14 0
-86 -14 0
-86 -13 0
-86 -12 0
-86 -11 0
-86 -10 0
-9 -86 0
-8 -86 0
32 -91 90 0
-90 91 0
-32 91 0
-17 -90 89 0
17 90 0
-89 90 0
8 9 10 11 89 12 13 14 0
-89 -14 0
-89 -13 0
-12 -89 0
-11 -89 0
-10 -89 0
-9 -89 0
-8 -89 0
93 -95 94 0
-93 95 0
-94 95 0
-93 -16 92 0
16 93 0
93 -92 0
92 8 9 10 11 12 13 14 0
-14 -92 0
-13 -92 0
-12 -92 0
-11 -92 0
-10 -92 0
-9 -92 0
-8 -92 0
-33 94 -34 0
-94 34 0
-94 33 0
97 -99 98 0
-97 99 0
-98 99 0
-97 96 -15 0
15 97 0
-96 97 0
96 8 9 10 11 12 13 14 0
-96 -14 0
-96 -13 0
-96 -12 0
-96 -11 0
-96 -10 0
-96 -9 0
-96 -8 0
-32 -33 98 0
33 -98 0
32 -98 0
100 -102 101 0
-100 102 0
-101 102 0
-100 -38 39 40 0
100 38 0
100 -39 0
100 -40 0
-34 101 -28 -30 0
-101 28 0
-101 30 0
34 -101 0
34 -101 0
103 -105 104 0
-103 105 0
-104 105 0
-103 38 -39 40 0
-38 103 0
39 103 0
-40 103 0
-33 -27 104 -31 0
-104 27 0
31 -104 0
33 -104 0
106 -108 107 0
108 -106 0
108 -107 0
-38 -39 40 -106 0
38 106 0
39 106 0
-40 106 0
-33 -27 -29 107 0
27 -107 0
29 -107 0
33 -107 0
33 -107 0
109 -111 110 0
-109 111 0
-110 111 0
-109 38 39 -40 0
109 -38 0
109 -39 0
109 40 0
-32 110 -26 -30 0
-110 26 0
-110 30 0
32 -110 0
31 -113 112 0
-112 113 0
113 -31 0
-112 -38 39 -40 0
112 38 0
112 -39 0
112 40 0
-115 114 30 0
-114 115 0
115 -30 0
-114 38 -39 -40 0
114 -38 0
114 39 0
114 40 0
-117 116 29 0
-116 117 0
117 -29 0
-116 -38 -39 -40 0
116 38 0
116 39 0
116 40 0
-118 -34 -31 0
31 118 0
118 34 0
-119 -33 -30 0
119 30 0
33 119 0
-32 -120 -29 0
120 29 0
32 120 0
-123 -22 -25 0
123 22 0
123 25 0
-21 -124 -24 0
21 124 0
124 24 0
-20 -125 -23 0
20 125 0
23 125 0
